(set-logic ALL)
(declare-fun seed0_I0_5 () Int)
(declare-fun seed0_PCTEMP_LHS_1 () Int)
(declare-fun seed0_T0_5 () String)
(declare-fun seed0_T1_5 () String)
(declare-fun seed0_T2_5 () String)
(declare-fun seed0_T3_5 () String)
(declare-fun seed0_T4_5 () String)
(declare-fun seed0_T5_5 () String)
(declare-fun seed0_T_1 () Bool)
(declare-fun seed0_T_2 () Bool)
(declare-fun seed0_T_3 () Bool)
(declare-fun seed0_T_5 () Bool)
(declare-fun seed0_T_6 () Bool)
(declare-fun seed0_T_SELECT_1 () Bool)
(declare-fun seed0_var_0xINPUT_138510 () String)
(assert (and (or (= seed0_T_1 (= "-" seed0_var_0xINPUT_138510)) (=> (< (+ seed0_I0_5 932) (- seed0_PCTEMP_LHS_1 (- 312))) (<= (+ seed0_PCTEMP_LHS_1 969) (+ seed0_I0_5 (- 492))))) (or (= seed0_T_2 (not seed0_T_1)) (xor (distinct (div seed0_I0_5 seed0_PCTEMP_LHS_1) (* seed0_I0_5 seed0_I0_5)) (<= (- seed0_I0_5 (- 436)) (- seed0_I0_5 309)))) (or seed0_T_2 (not (str.prefixof (str.++ seed0_var_0xINPUT_138510 "y9wSM") (str.++ seed0_T2_5 "dlBR")))) (or (= seed0_T_3 (= "" seed0_var_0xINPUT_138510)) (xor (str.<= (str.++ seed0_T4_5 "delC8xVH1gnMmhsSr") (str.++ seed0_T5_5 "hbGI5BjsP")) (str.prefixof (str.++ seed0_T1_5 "nd") (str.++ seed0_T0_5 "RrV3A")))) (or seed0_T_3 (=> (str.<= (str.++ seed0_T4_5 "RMhFbNJ") (str.++ seed0_T3_5 "nR2uWmF9QH7j")) (str.<= (str.++ seed0_T5_5 "") (str.++ seed0_T2_5 "i")))) (or (= seed0_T_SELECT_1 (not (= seed0_PCTEMP_LHS_1 (- 1)))) (or (>= (div seed0_PCTEMP_LHS_1 seed0_PCTEMP_LHS_1) (* seed0_PCTEMP_LHS_1 seed0_I0_5)) (= (mod seed0_I0_5 seed0_I0_5) (div seed0_I0_5 seed0_I0_5)))) (or (ite seed0_T_SELECT_1 (and (= seed0_PCTEMP_LHS_1 (+ seed0_I0_5 0)) (= seed0_var_0xINPUT_138510 (str.++ seed0_T0_5 seed0_T1_5)) (= seed0_I0_5 (str.len seed0_T4_5)) (= 0 (str.len seed0_T0_5)) (= seed0_T1_5 (str.++ seed0_T2_5 seed0_T3_5)) (= seed0_T2_5 (str.++ seed0_T4_5 seed0_T5_5)) (= seed0_T5_5 "__utmv=16886264.") (not (str.in_re seed0_T4_5 (re.++ (str.to_re "_") (str.to_re "_") (str.to_re "u") (str.to_re "t") (str.to_re "m") (str.to_re "v") (str.to_re "=") (str.to_re "1") (str.to_re "6") (str.to_re "8") (str.to_re "8") (str.to_re "6") (str.to_re "2") (str.to_re "6") (str.to_re "4") (str.to_re "."))))) (and (= seed0_PCTEMP_LHS_1 (- 1)) (= seed0_var_0xINPUT_138510 (str.++ seed0_T0_5 seed0_T1_5)) (= 0 (str.len seed0_T0_5)) (not (str.in_re seed0_T1_5 (re.++ (str.to_re "_") (str.to_re "_") (str.to_re "u") (str.to_re "t") (str.to_re "m") (str.to_re "v") (str.to_re "=") (str.to_re "1") (str.to_re "6") (str.to_re "8") (str.to_re "8") (str.to_re "6") (str.to_re "2") (str.to_re "6") (str.to_re "4") (str.to_re ".")))))) (not (= (* seed0_I0_5 seed0_PCTEMP_LHS_1) (* seed0_PCTEMP_LHS_1 seed0_PCTEMP_LHS_1)))) (or (= seed0_T_5 (< (- 1) seed0_PCTEMP_LHS_1)) (or (str.suffixof (str.++ seed0_T2_5 "cFY7U48xjaP2CWXEdHp") (str.++ seed0_T1_5 "qvotJPRSZ7sj")) (str.suffixof (str.++ seed0_T0_5 "iHoAaW") (str.++ seed0_T1_5 "HxsjLG7")))) (or (= seed0_T_6 (not seed0_T_5)) (or (str.suffixof (str.++ seed0_T5_5 "caYTO59D01zxy") (str.++ seed0_T0_5 "zFZeg9MIE3LhxK")) (str.contains (str.++ seed0_var_0xINPUT_138510 "evy4sAtjCF2") (str.++ seed0_T5_5 "ns9d7ASKR8PyWBbLEo")))) (or seed0_T_6 (=> (str.<= (str.++ seed0_T2_5 "6cS") (str.++ seed0_T4_5 "9CsvFL")) (str.contains (str.++ seed0_T0_5 "U0H7PLD3vjon6uf") (str.++ seed0_T2_5 "uf0vkYV6l"))))))
(check-sat)
(exit)